
Gurobi 11.0.1 (win64) logging started Mon May 13 15:37:22 2024

Set parameter LogFile to value "output/solver_log16.txt"
Gurobi Optimizer version 11.0.1 build v11.0.1rc0 (win64 - Windows 11.0 (22631.2))

CPU model: 11th Gen Intel(R) Core(TM) i7-1165G7 @ 2.80GHz, instruction set [SSE2|AVX|AVX2|AVX512]
Thread count: 4 physical cores, 8 logical processors, using up to 8 threads

Optimize a model with 2522 rows, 559 columns and 46667 nonzeros
Model fingerprint: 0x5d1a4f23
Variable types: 248 continuous, 311 integer (311 binary)
Coefficient statistics:
  Matrix range     [4e-01, 1e+05]
  Objective range  [1e+00, 1e+02]
  Bounds range     [1e+00, 1e+00]
  RHS range        [1e-02, 1e+05]

User MIP start produced solution with objective 75527.8 (0.00s)
User MIP start produced solution with objective 75527.8 (0.00s)
Loaded user MIP start with objective 75527.8

Presolve removed 210 rows and 184 columns
Presolve time: 0.06s
Presolved: 2312 rows, 375 columns, 44513 nonzeros
Variable types: 230 continuous, 145 integer (142 binary)

Root relaxation: objective 7.565917e+04, 524 iterations, 0.05 seconds (0.06 work units)

    Nodes    |    Current Node    |     Objective Bounds      |     Work
 Expl Unexpl |  Obj  Depth IntInf | Incumbent    BestBd   Gap | It/Node Time

     0     0 75659.1715    0    6 75527.8209 75659.1715  0.17%     -    0s
     0     0 75654.1337    0    4 75527.8209 75654.1337  0.17%     -    0s
     0     0 75654.1337    0    4 75527.8209 75654.1337  0.17%     -    0s
     0     0 75654.1337    0    1 75527.8209 75654.1337  0.17%     -    0s
     0     0 75654.1337    0    1 75527.8209 75654.1337  0.17%     -    0s
     0     2 75654.1337    0    1 75527.8209 75654.1337  0.17%     -    0s
H   30    29                    75597.563910 75654.1337  0.07%  18.8    0s

Explored 628 nodes (10531 simplex iterations) in 1.19 seconds (2.03 work units)
Thread count was 8 (of 8 available processors)

Solution count 3: 75597.6 75597.6 75527.8 

Optimal solution found (tolerance 1.00e-04)
Best objective 7.559756391011e+04, best bound 7.559887683040e+04, gap 0.0017%
